letting n_nurses=25
letting n_days=7
letting n_shift_types=4
letting max_covers=8
letting t_covers=87
letting covers=[8,2,5,0,6,8,3,0,7,7,3,0,3,4,8,0,2,1,1,0,8,3,5,0,0,1,2,0]
letting prefes=[3,3,3,3,4,4,4,4,4,4,4,4,3,1,1,3,3,3,3,3,3,1,1,3,4,4,4,4,1,1,1,1,4,4,1,1,4,4,1,1,1,3,1,3,1,1,1,1,1,3,1,3,4,4,1,1,3,3,1,3,1,1,1,1,1,1,1,1,3,3,1,3,3,3,1,3,3,3,1,3,1,1,1,1,3,3,1,3,4,1,1,1,4,1,1,1,3,3,3,3,3,3,1,3,3,3,3,3,4,1,1,1,3,3,1,3,4,1,4,4,4,1,4,4,3,3,1,1,3,3,1,3,3,3,1,1,4,1,4,4,3,3,1,3,4,1,1,1,4,1,1,1,3,3,1,1,3,3,1,3,3,3,1,1,4,1,1,1,3,1,1,1,4,1,1,1,4,1,1,1,3,3,1,3,3,1,1,1,3,3,1,3,4,1,1,1,3,3,1,3,1,1,1,1,1,1,1,1,3,1,1,3,3,3,1,3,3,1,1,3,1,1,1,1,3,3,1,3,4,1,1,1,4,1,1,1,3,3,1,1,3,3,1,3,3,3,1,1,4,1,1,1,3,3,1,3,4,1,1,1,4,1,1,1,3,3,1,3,3,3,1,3,3,3,1,3,4,1,1,1,3,3,3,3,4,1,1,1,4,1,1,1,3,3,1,3,3,3,3,3,3,3,1,3,4,1,1,1,3,3,1,3,4,1,4,4,4,1,4,4,3,3,1,1,3,3,1,3,3,3,1,1,4,1,4,4,3,3,3,3,1,1,1,1,1,1,1,1,3,3,1,3,3,3,3,3,3,3,1,3,1,1,1,1,3,3,1,3,4,1,1,1,4,1,1,1,3,3,1,3,3,3,1,3,3,3,1,3,4,1,1,1,1,1,1,1,4,4,1,1,4,4,1,1,1,3,1,3,1,1,1,1,1,3,1,3,4,4,1,1,3,3,3,3,4,1,1,1,4,1,1,1,3,3,3,3,3,3,3,3,3,3,3,3,4,1,1,1,3,3,1,3,4,1,4,4,4,1,4,4,3,1,1,3,3,3,1,3,3,1,1,3,4,1,4,4,1,1,3,1,4,4,1,1,4,4,1,1,1,3,1,3,1,1,3,1,1,3,1,3,4,4,1,1,3,1,1,1,4,1,1,1,4,1,1,1,3,3,3,3,3,1,1,1,3,3,3,3,4,1,1,1,3,3,1,3,4,4,1,1,4,4,1,1,3,3,1,3,3,3,1,3,3,3,1,3,4,4,1,1,3,3,1,3,1,1,1,1,1,1,1,1,3,3,3,3,3,3,1,3,3,3,3,3,1,1,1,1,1,3,1,3,4,1,1,1,4,1,1,1,1,1,1,1,1,3,1,3,1,1,1,1,4,1,1,1,3,3,1,3,1,1,1,1,1,1,1,1,3,3,3,3,3,3,1,3,3,3,3,3,1,1,1,1,3,3,1,3,4,1,1,1,4,1,1,1,3,1,1,3,3,3,1,3,3,1,1,3,4,1,1,1,1,3,1,3,4,1,4,4,4,1,4,4,1,3,1,3,1,3,1,3,1,3,1,3,4,1,4,4]
letting ub =  235
